problem_generation/data/GISP/train/er_n=60_m=1038_p=0.60_SET2_setparam=100.00_alpha=0.50_283.lp
maximize
OBJ:100x0 + 100x1 + 100x2 + 100x3 + 100x4 + 100x5 + 100x6 + 100x7 + 100x8 + 100x9 + 100x10 + 100x11 + 100x12 + 100x13 + 100x14 + 100x15 + 100x16 + 100x17 + 100x18 + 100x19 + 100x20 + 100x21 + 100x22 + 100x23 + 100x24 + 100x25 + 100x26 + 100x27 + 100x28 + 100x29 + 100x30 + 100x31 + 100x32 + 100x33 + 100x34 + 100x35 + 100x36 + 100x37 + 100x38 + 100x39 + 100x40 + 100x41 + 100x42 + 100x43 + 100x44 + 100x45 + 100x46 + 100x47 + 100x48 + 100x49 + 100x50 + 100x51 + 100x52 + 100x53 + 100x54 + 100x55 + 100x56 + 100x57 + 100x58 + 100x59 - y15_21 - y47_53 - y7_26 - y17_58 - y18_35 - y8_9 - y40_41 - y48_54 - y0_14 - y6_48 - y21_46 - y10_27 - y41_42 - y25_43 - y10_54 - y33_56 - y2_50 - y3_15 - y14_15 - y3_24 - y22_46 - y15_16 - y36_57 - y47_57 - y48_58 - y6_52 - y29_54 - y10_22 - y10_40 - y2_36 - y25_38 - y10_49 - y2_45 - y10_58 - y22_23 - y14_19 - y43_55 - y3_28 - y16_56 - y17_39 - y6_29 - y6_38 - y21_36 - y6_47 - y10_26 - y2_31 - y25_33 - y10_44 - y2_40 - y32_41 - y3_14 - y13_46 - y24_46 - y14_23 - y24_55 - y14_32 - y16_51 - y17_34 - y28_34 - y9_39 - y5_50 - y9_57 - y39_57 - y31_53 - y10_30 - y10_39 - y43_45 - y51_58 - y43_54 - y24_59 - y5_36 - y28_38 - y36_51 - y9_34 - y5_45 - y6_10 - y28_47 - y17_56 - y6_19 - y28_56 - y50_53 - y21_26 - y21_35 - y2_3 - y20_39 - y2_12 - y20_48 - y2_21 - y23_53 - y24_27 - y3_4 - y4_58 - y32_40 - y24_36 - y51_53 - y43_49 - y35_45 - y43_58 - y9_11 - y5_22 - y28_33 - y9_29 - y5_40 - y5_58 - y8_51 - y42_53 - y0_56 - y31_34 - y2_7 - y39_56 - y31_52 - y4_53 - y13_31 - y16_27 - y13_40 - y16_36 - y16_45 - y5_8 - y1_56 - y16_54 - y9_15 - y38_51 - y17_28 - y9_24 - y28_37 - y6_9 - y27_41 - y27_50 - y19_46 - y30_46 - y27_59 - y8_55 - y0_51 - y20_47 - y31_47 - y24_26 - y32_39 - y1_42 - y13_44 - y38_46 - y5_21 - y46_59 - y57_59 - y7_58 - y6_13 - y8_32 - y30_50 - y42_52 - y11_46 - y30_59 - y20_24 - y31_33 - y12_29 - y31_42 - y20_51 - y1_10 - y1_19 - y13_21 - y4_52 - y16_17 - y45_53 - y13_30 - y37_58 - y38_41 - y46_54 - y9_14 - y15_48 - y26_48 - y38_59 - y27_40 - y27_49 - y0_32 - y11_32 - y11_41 - y19_54 - y30_54 - y11_50 - y20_28 - y39_41 - y23_24 - y31_37 - y4_20 - y4_29 - y23_42 - y4_38 - y24_25 - y16_21 - y22_55 - y56_57 - y15_34 - y26_34 - y5_11 - y38_45 - y26_52 - y49_54 - y19_22 - y19_31 - y11_27 - y30_40 - y30_49 - y0_45 - y20_23 - y4_6 - y0_54 - y52_55 - y4_15 - y23_37 - y1_9 - y22_41 - y34_43 - y34_52 - y45_52 - y22_59 - y37_57 - y15_29 - y15_38 - y15_47 - y0_4 - y7_52 - y11_13 - y27_39 - y0_22 - y30_35 - y0_31 - y33_46 - y4_19 - y4_28 - y22_36 - y1_13 - y45_47 - y37_43 - y3_50 - y18_20 - y7_29 - y7_38 - y18_38 - y7_47 - y19_21 - y0_17 - y11_17 - y8_30 - y29_53 - y0_26 - y4_5 - y52_54 - y4_14 - y33_50 - y2_44 - y10_57 - y25_55 - y14_36 - y22_49 - y34_51 - y3_45 - y14_54 - y37_56 - y26_28 - y26_46 - y29_39 - y8_16 - y29_57 - y40_57 - y11_30 - y4_9 - y10_52 - y22_26 - y14_31 - y3_49 - y7_10 - y29_34 - y29_43 - y21_39 - y11_16 - y6_59 - y10_20 - y41_44 - y33_40 - y33_49 - y2_43 - y25_45 - y51_57 - y3_17 - y32_53 - y3_26 - y47_50 - y7_23 - y47_59 - y6_27 - y0_2 - y54_58 - y2_29 - y2_38 - y25_40 - y51_52 - y3_12 - y3_21 - y32_57 - y43_57 - y13_53 - y35_53 - y16_58 - y7_9 - y28_41 - y36_54 - y9_37 - y28_59 - y6_31 - y29_33 - y21_29 - y21_38 - y21_47 - y10_19 - y39_55 - y2_24 - y2_33 - y32_34 - y3_7 - y32_43 - y14_16 - y43_52 - y13_48 - y14_25 - y9_23 - y5_34 - y5_43 - y47_58 - y6_17 - y9_50 - y9_59 - y6_35 - y21_42 - y2_19 - y20_55 - y10_32 - y12_51 - y23_51 - y31_55 - y54_57 - y4_56 - y32_38 - y43_47 - y16_39 - y16_57 - y5_29 - y36_44 - y5_56 - y6_39 - y39_45 - y2_14 - y31_50 - y23_46 - y4_42 - y13_20 - y4_51 - y24_38 - y13_47 - y24_56 - y35_56 - y5_15 - y5_24 - y49_58 - y5_42 - y42_46 - y21_23 - y50_59 - y20_27 - y39_40 - y12_41 - y23_41 - y2_18 - y4_37 - y20_54 - y23_50 - y13_15 - y12_59 - y4_55 - y24_33 - y32_46 - y1_40 - y13_42 - y38_44 - y5_19 - y9_17 - y5_28 - y28_30 - y9_26 - y6_11 - y8_39 - y50_54 - y8_48 - y30_48 - y19_57 - y0_53 - y20_31 - y4_23 - y39_53 - y20_58 - y4_41 - y31_58 - y23_54 - y1_17 - y13_19 - y53_55 - y1_26 - y1_35 - y16_33 - y16_42 - y5_14 - y46_52 - y38_48 - y5_23 - y49_57 - y5_32 - y18_51 - y8_25 - y19_34 - y0_30 - y19_43 - y30_43 - y0_39 - y20_26 - y11_57 - y20_35 - y12_31 - y23_31 - y20_44 - y23_49 - y4_45 - y53_59 - y16_19 - y45_55 - y1_30 - y37_51 - y15_41 - y46_56 - y15_50 - y26_50 - y18_46 - y26_59 - y19_20 - y27_33 - y8_29 - y27_42 - y30_38 - y0_34 - y30_47 - y42_49 - y0_43 - y12_17 - y52_53 - y12_35 - y22_48 - y14_53 - y26_27 - y26_36 - y46_51 - y15_54 - y18_50 - y8_15 - y27_28 - y8_33 - y19_33 - y30_33 - y0_29 - y11_38 - y12_21 - y12_30 - y25_49 - y4_35 - y34_54 - y14_48 - y26_31 - y7_27 - y15_40 - y18_36 - y8_10 - y7_54 - y27_32 - y8_28 - y19_37 - y4_12 - y33_48 - y44_48 - y25_44 - y4_21 - y10_55 - y34_40 - y34_49 - y3_43 - y15_26 - y26_35 - y26_44 - y7_40 - y0_19 - y6_53 - y30_32 - y40_55 - y0_28 - y41_47 - y25_30 - y41_56 - y22_24 - y2_55 - y3_20 - y14_20 - y25_57 - y3_38 - y14_38 - y3_47 - y7_8 - y14_56
 Subject to
C1: x0+x2-y0_2 <=1 
C2: x0+x3 <=1 
C3: x0+x4-y0_4 <=1 
C4: x0+x8 <=1 
C5: x0+x10 <=1 
C6: x0+x12 <=1 
C7: x0+x14-y0_14 <=1 
C8: x0+x15 <=1 
C9: x0+x17-y0_17 <=1 
C10: x0+x18 <=1 
C11: x0+x19-y0_19 <=1 
C12: x0+x20 <=1 
C13: x0+x21 <=1 
C14: x0+x22-y0_22 <=1 
C15: x0+x24 <=1 
C16: x0+x26-y0_26 <=1 
C17: x0+x28-y0_28 <=1 
C18: x0+x29-y0_29 <=1 
C19: x0+x30-y0_30 <=1 
C20: x0+x31-y0_31 <=1 
C21: x0+x32-y0_32 <=1 
C22: x0+x33 <=1 
C23: x0+x34-y0_34 <=1 
C24: x0+x38 <=1 
C25: x0+x39-y0_39 <=1 
C26: x0+x41 <=1 
C27: x0+x43-y0_43 <=1 
C28: x0+x45-y0_45 <=1 
C29: x0+x49 <=1 
C30: x0+x51-y0_51 <=1 
C31: x0+x53-y0_53 <=1 
C32: x0+x54-y0_54 <=1 
C33: x0+x56-y0_56 <=1 
C34: x0+x57 <=1 
C35: x1+x3 <=1 
C36: x1+x6 <=1 
C37: x1+x9-y1_9 <=1 
C38: x1+x10-y1_10 <=1 
C39: x1+x11 <=1 
C40: x1+x13-y1_13 <=1 
C41: x1+x14 <=1 
C42: x1+x17-y1_17 <=1 
C43: x1+x18 <=1 
C44: x1+x19-y1_19 <=1 
C45: x1+x21 <=1 
C46: x1+x24 <=1 
C47: x1+x25 <=1 
C48: x1+x26-y1_26 <=1 
C49: x1+x28 <=1 
C50: x1+x30-y1_30 <=1 
C51: x1+x32 <=1 
C52: x1+x35-y1_35 <=1 
C53: x1+x36 <=1 
C54: x1+x37 <=1 
C55: x1+x40-y1_40 <=1 
C56: x1+x42-y1_42 <=1 
C57: x1+x43 <=1 
C58: x1+x47 <=1 
C59: x1+x50 <=1 
C60: x1+x53 <=1 
C61: x1+x54 <=1 
C62: x1+x55 <=1 
C63: x1+x56-y1_56 <=1 
C64: x1+x58 <=1 
C65: x1+x59 <=1 
C66: x2+x3-y2_3 <=1 
C67: x2+x5 <=1 
C68: x2+x7-y2_7 <=1 
C69: x2+x9 <=1 
C70: x2+x12-y2_12 <=1 
C71: x2+x14-y2_14 <=1 
C72: x2+x16 <=1 
C73: x2+x17 <=1 
C74: x2+x18-y2_18 <=1 
C75: x2+x19-y2_19 <=1 
C76: x2+x21-y2_21 <=1 
C77: x2+x22 <=1 
C78: x2+x24-y2_24 <=1 
C79: x2+x26 <=1 
C80: x2+x27 <=1 
C81: x2+x29-y2_29 <=1 
C82: x2+x31-y2_31 <=1 
C83: x2+x33-y2_33 <=1 
C84: x2+x34 <=1 
C85: x2+x36-y2_36 <=1 
C86: x2+x37 <=1 
C87: x2+x38-y2_38 <=1 
C88: x2+x39 <=1 
C89: x2+x40-y2_40 <=1 
C90: x2+x41 <=1 
C91: x2+x42 <=1 
C92: x2+x43-y2_43 <=1 
C93: x2+x44-y2_44 <=1 
C94: x2+x45-y2_45 <=1 
C95: x2+x47 <=1 
C96: x2+x48 <=1 
C97: x2+x50-y2_50 <=1 
C98: x2+x53 <=1 
C99: x2+x54 <=1 
C100: x2+x55-y2_55 <=1 
C101: x2+x57 <=1 
C102: x2+x58 <=1 
C103: x2+x59 <=1 
C104: x3+x4-y3_4 <=1 
C105: x3+x5 <=1 
C106: x3+x6 <=1 
C107: x3+x7-y3_7 <=1 
C108: x3+x9 <=1 
C109: x3+x10 <=1 
C110: x3+x12-y3_12 <=1 
C111: x3+x13 <=1 
C112: x3+x14-y3_14 <=1 
C113: x3+x15-y3_15 <=1 
C114: x3+x16 <=1 
C115: x3+x17-y3_17 <=1 
C116: x3+x20-y3_20 <=1 
C117: x3+x21-y3_21 <=1 
C118: x3+x23 <=1 
C119: x3+x24-y3_24 <=1 
C120: x3+x25 <=1 
C121: x3+x26-y3_26 <=1 
C122: x3+x27 <=1 
C123: x3+x28-y3_28 <=1 
C124: x3+x30 <=1 
C125: x3+x35 <=1 
C126: x3+x38-y3_38 <=1 
C127: x3+x40 <=1 
C128: x3+x43-y3_43 <=1 
C129: x3+x44 <=1 
C130: x3+x45-y3_45 <=1 
C131: x3+x47-y3_47 <=1 
C132: x3+x49-y3_49 <=1 
C133: x3+x50-y3_50 <=1 
C134: x3+x52 <=1 
C135: x3+x53 <=1 
C136: x3+x54 <=1 
C137: x3+x55 <=1 
C138: x3+x57 <=1 
C139: x3+x58 <=1 
C140: x4+x5-y4_5 <=1 
C141: x4+x6-y4_6 <=1 
C142: x4+x7 <=1 
C143: x4+x9-y4_9 <=1 
C144: x4+x10 <=1 
C145: x4+x12-y4_12 <=1 
C146: x4+x13 <=1 
C147: x4+x14-y4_14 <=1 
C148: x4+x15-y4_15 <=1 
C149: x4+x16 <=1 
C150: x4+x19-y4_19 <=1 
C151: x4+x20-y4_20 <=1 
C152: x4+x21-y4_21 <=1 
C153: x4+x23-y4_23 <=1 
C154: x4+x25 <=1 
C155: x4+x28-y4_28 <=1 
C156: x4+x29-y4_29 <=1 
C157: x4+x35-y4_35 <=1 
C158: x4+x37-y4_37 <=1 
C159: x4+x38-y4_38 <=1 
C160: x4+x39 <=1 
C161: x4+x41-y4_41 <=1 
C162: x4+x42-y4_42 <=1 
C163: x4+x43 <=1 
C164: x4+x45-y4_45 <=1 
C165: x4+x46 <=1 
C166: x4+x50 <=1 
C167: x4+x51-y4_51 <=1 
C168: x4+x52-y4_52 <=1 
C169: x4+x53-y4_53 <=1 
C170: x4+x54 <=1 
C171: x4+x55-y4_55 <=1 
C172: x4+x56-y4_56 <=1 
C173: x4+x57 <=1 
C174: x4+x58-y4_58 <=1 
C175: x5+x8-y5_8 <=1 
C176: x5+x10 <=1 
C177: x5+x11-y5_11 <=1 
C178: x5+x12 <=1 
C179: x5+x14-y5_14 <=1 
C180: x5+x15-y5_15 <=1 
C181: x5+x18 <=1 
C182: x5+x19-y5_19 <=1 
C183: x5+x20 <=1 
C184: x5+x21-y5_21 <=1 
C185: x5+x22-y5_22 <=1 
C186: x5+x23-y5_23 <=1 
C187: x5+x24-y5_24 <=1 
C188: x5+x25 <=1 
C189: x5+x26 <=1 
C190: x5+x28-y5_28 <=1 
C191: x5+x29-y5_29 <=1 
C192: x5+x31 <=1 
C193: x5+x32-y5_32 <=1 
C194: x5+x34-y5_34 <=1 
C195: x5+x36-y5_36 <=1 
C196: x5+x40-y5_40 <=1 
C197: x5+x42-y5_42 <=1 
C198: x5+x43-y5_43 <=1 
C199: x5+x44 <=1 
C200: x5+x45-y5_45 <=1 
C201: x5+x46 <=1 
C202: x5+x47 <=1 
C203: x5+x48 <=1 
C204: x5+x49 <=1 
C205: x5+x50-y5_50 <=1 
C206: x5+x51 <=1 
C207: x5+x53 <=1 
C208: x5+x56-y5_56 <=1 
C209: x5+x57 <=1 
C210: x5+x58-y5_58 <=1 
C211: x5+x59 <=1 
C212: x6+x8 <=1 
C213: x6+x9-y6_9 <=1 
C214: x6+x10-y6_10 <=1 
C215: x6+x11-y6_11 <=1 
C216: x6+x12 <=1 
C217: x6+x13-y6_13 <=1 
C218: x6+x16 <=1 
C219: x6+x17-y6_17 <=1 
C220: x6+x19-y6_19 <=1 
C221: x6+x20 <=1 
C222: x6+x27-y6_27 <=1 
C223: x6+x29-y6_29 <=1 
C224: x6+x31-y6_31 <=1 
C225: x6+x35-y6_35 <=1 
C226: x6+x37 <=1 
C227: x6+x38-y6_38 <=1 
C228: x6+x39-y6_39 <=1 
C229: x6+x43 <=1 
C230: x6+x44 <=1 
C231: x6+x47-y6_47 <=1 
C232: x6+x48-y6_48 <=1 
C233: x6+x49 <=1 
C234: x6+x52-y6_52 <=1 
C235: x6+x53-y6_53 <=1 
C236: x6+x54 <=1 
C237: x6+x59-y6_59 <=1 
C238: x7+x8-y7_8 <=1 
C239: x7+x9-y7_9 <=1 
C240: x7+x10-y7_10 <=1 
C241: x7+x13 <=1 
C242: x7+x17 <=1 
C243: x7+x22 <=1 
C244: x7+x23-y7_23 <=1 
C245: x7+x26-y7_26 <=1 
C246: x7+x27-y7_27 <=1 
C247: x7+x28 <=1 
C248: x7+x29-y7_29 <=1 
C249: x7+x30 <=1 
C250: x7+x31 <=1 
C251: x7+x35 <=1 
C252: x7+x36 <=1 
C253: x7+x38-y7_38 <=1 
C254: x7+x40-y7_40 <=1 
C255: x7+x42 <=1 
C256: x7+x43 <=1 
C257: x7+x44 <=1 
C258: x7+x45 <=1 
C259: x7+x46 <=1 
C260: x7+x47-y7_47 <=1 
C261: x7+x49 <=1 
C262: x7+x52-y7_52 <=1 
C263: x7+x54-y7_54 <=1 
C264: x7+x55 <=1 
C265: x7+x57 <=1 
C266: x7+x58-y7_58 <=1 
C267: x8+x9-y8_9 <=1 
C268: x8+x10-y8_10 <=1 
C269: x8+x11 <=1 
C270: x8+x15-y8_15 <=1 
C271: x8+x16-y8_16 <=1 
C272: x8+x19 <=1 
C273: x8+x20 <=1 
C274: x8+x21 <=1 
C275: x8+x25-y8_25 <=1 
C276: x8+x28-y8_28 <=1 
C277: x8+x29-y8_29 <=1 
C278: x8+x30-y8_30 <=1 
C279: x8+x32-y8_32 <=1 
C280: x8+x33-y8_33 <=1 
C281: x8+x37 <=1 
C282: x8+x39-y8_39 <=1 
C283: x8+x43 <=1 
C284: x8+x45 <=1 
C285: x8+x46 <=1 
C286: x8+x47 <=1 
C287: x8+x48-y8_48 <=1 
C288: x8+x50 <=1 
C289: x8+x51-y8_51 <=1 
C290: x8+x52 <=1 
C291: x8+x53 <=1 
C292: x8+x54 <=1 
C293: x8+x55-y8_55 <=1 
C294: x8+x56 <=1 
C295: x8+x57 <=1 
C296: x8+x59 <=1 
C297: x9+x11-y9_11 <=1 
C298: x9+x13 <=1 
C299: x9+x14-y9_14 <=1 
C300: x9+x15-y9_15 <=1 
C301: x9+x17-y9_17 <=1 
C302: x9+x18 <=1 
C303: x9+x20 <=1 
C304: x9+x23-y9_23 <=1 
C305: x9+x24-y9_24 <=1 
C306: x9+x25 <=1 
C307: x9+x26-y9_26 <=1 
C308: x9+x29-y9_29 <=1 
C309: x9+x31 <=1 
C310: x9+x33 <=1 
C311: x9+x34-y9_34 <=1 
C312: x9+x36 <=1 
C313: x9+x37-y9_37 <=1 
C314: x9+x38 <=1 
C315: x9+x39-y9_39 <=1 
C316: x9+x42 <=1 
C317: x9+x45 <=1 
C318: x9+x47 <=1 
C319: x9+x50-y9_50 <=1 
C320: x9+x56 <=1 
C321: x9+x57-y9_57 <=1 
C322: x9+x59-y9_59 <=1 
C323: x10+x14 <=1 
C324: x10+x19-y10_19 <=1 
C325: x10+x20-y10_20 <=1 
C326: x10+x22-y10_22 <=1 
C327: x10+x24 <=1 
C328: x10+x26-y10_26 <=1 
C329: x10+x27-y10_27 <=1 
C330: x10+x30-y10_30 <=1 
C331: x10+x31 <=1 
C332: x10+x32-y10_32 <=1 
C333: x10+x33 <=1 
C334: x10+x36 <=1 
C335: x10+x39-y10_39 <=1 
C336: x10+x40-y10_40 <=1 
C337: x10+x41 <=1 
C338: x10+x44-y10_44 <=1 
C339: x10+x47 <=1 
C340: x10+x49-y10_49 <=1 
C341: x10+x52-y10_52 <=1 
C342: x10+x54-y10_54 <=1 
C343: x10+x55-y10_55 <=1 
C344: x10+x57-y10_57 <=1 
C345: x10+x58-y10_58 <=1 
C346: x10+x59 <=1 
C347: x11+x12 <=1 
C348: x11+x13-y11_13 <=1 
C349: x11+x14 <=1 
C350: x11+x15 <=1 
C351: x11+x16-y11_16 <=1 
C352: x11+x17-y11_17 <=1 
C353: x11+x18 <=1 
C354: x11+x19 <=1 
C355: x11+x21 <=1 
C356: x11+x22 <=1 
C357: x11+x24 <=1 
C358: x11+x25 <=1 
C359: x11+x27-y11_27 <=1 
C360: x11+x29 <=1 
C361: x11+x30-y11_30 <=1 
C362: x11+x31 <=1 
C363: x11+x32-y11_32 <=1 
C364: x11+x34 <=1 
C365: x11+x35 <=1 
C366: x11+x37 <=1 
C367: x11+x38-y11_38 <=1 
C368: x11+x39 <=1 
C369: x11+x40 <=1 
C370: x11+x41-y11_41 <=1 
C371: x11+x42 <=1 
C372: x11+x43 <=1 
C373: x11+x44 <=1 
C374: x11+x45 <=1 
C375: x11+x46-y11_46 <=1 
C376: x11+x50-y11_50 <=1 
C377: x11+x51 <=1 
C378: x11+x52 <=1 
C379: x11+x53 <=1 
C380: x11+x54 <=1 
C381: x11+x57-y11_57 <=1 
C382: x12+x13 <=1 
C383: x12+x15 <=1 
C384: x12+x16 <=1 
C385: x12+x17-y12_17 <=1 
C386: x12+x21-y12_21 <=1 
C387: x12+x22 <=1 
C388: x12+x23 <=1 
C389: x12+x24 <=1 
C390: x12+x27 <=1 
C391: x12+x28 <=1 
C392: x12+x29-y12_29 <=1 
C393: x12+x30-y12_30 <=1 
C394: x12+x31-y12_31 <=1 
C395: x12+x32 <=1 
C396: x12+x33 <=1 
C397: x12+x35-y12_35 <=1 
C398: x12+x36 <=1 
C399: x12+x39 <=1 
C400: x12+x40 <=1 
C401: x12+x41-y12_41 <=1 
C402: x12+x44 <=1 
C403: x12+x46 <=1 
C404: x12+x47 <=1 
C405: x12+x48 <=1 
C406: x12+x50 <=1 
C407: x12+x51-y12_51 <=1 
C408: x12+x53 <=1 
C409: x12+x56 <=1 
C410: x12+x59-y12_59 <=1 
C411: x13+x14 <=1 
C412: x13+x15-y13_15 <=1 
C413: x13+x19-y13_19 <=1 
C414: x13+x20-y13_20 <=1 
C415: x13+x21-y13_21 <=1 
C416: x13+x24 <=1 
C417: x13+x26 <=1 
C418: x13+x29 <=1 
C419: x13+x30-y13_30 <=1 
C420: x13+x31-y13_31 <=1 
C421: x13+x33 <=1 
C422: x13+x34 <=1 
C423: x13+x37 <=1 
C424: x13+x40-y13_40 <=1 
C425: x13+x41 <=1 
C426: x13+x42-y13_42 <=1 
C427: x13+x43 <=1 
C428: x13+x44-y13_44 <=1 
C429: x13+x46-y13_46 <=1 
C430: x13+x47-y13_47 <=1 
C431: x13+x48-y13_48 <=1 
C432: x13+x52 <=1 
C433: x13+x53-y13_53 <=1 
C434: x13+x55 <=1 
C435: x13+x56 <=1 
C436: x13+x57 <=1 
C437: x13+x59 <=1 
C438: x14+x15-y14_15 <=1 
C439: x14+x16-y14_16 <=1 
C440: x14+x17 <=1 
C441: x14+x19-y14_19 <=1 
C442: x14+x20-y14_20 <=1 
C443: x14+x21 <=1 
C444: x14+x22 <=1 
C445: x14+x23-y14_23 <=1 
C446: x14+x25-y14_25 <=1 
C447: x14+x26 <=1 
C448: x14+x28 <=1 
C449: x14+x30 <=1 
C450: x14+x31-y14_31 <=1 
C451: x14+x32-y14_32 <=1 
C452: x14+x33 <=1 
C453: x14+x34 <=1 
C454: x14+x36-y14_36 <=1 
C455: x14+x37 <=1 
C456: x14+x38-y14_38 <=1 
C457: x14+x39 <=1 
C458: x14+x40 <=1 
C459: x14+x45 <=1 
C460: x14+x48-y14_48 <=1 
C461: x14+x50 <=1 
C462: x14+x51 <=1 
C463: x14+x53-y14_53 <=1 
C464: x14+x54-y14_54 <=1 
C465: x14+x56-y14_56 <=1 
C466: x14+x57 <=1 
C467: x15+x16-y15_16 <=1 
C468: x15+x21-y15_21 <=1 
C469: x15+x22 <=1 
C470: x15+x23 <=1 
C471: x15+x25 <=1 
C472: x15+x26-y15_26 <=1 
C473: x15+x28 <=1 
C474: x15+x29-y15_29 <=1 
C475: x15+x30 <=1 
C476: x15+x31 <=1 
C477: x15+x33 <=1 
C478: x15+x34-y15_34 <=1 
C479: x15+x37 <=1 
C480: x15+x38-y15_38 <=1 
C481: x15+x39 <=1 
C482: x15+x40-y15_40 <=1 
C483: x15+x41-y15_41 <=1 
C484: x15+x42 <=1 
C485: x15+x43 <=1 
C486: x15+x45 <=1 
C487: x15+x46 <=1 
C488: x15+x47-y15_47 <=1 
C489: x15+x48-y15_48 <=1 
C490: x15+x49 <=1 
C491: x15+x50-y15_50 <=1 
C492: x15+x54-y15_54 <=1 
C493: x15+x56 <=1 
C494: x15+x58 <=1 
C495: x15+x59 <=1 
C496: x16+x17-y16_17 <=1 
C497: x16+x18 <=1 
C498: x16+x19-y16_19 <=1 
C499: x16+x21-y16_21 <=1 
C500: x16+x24 <=1 
C501: x16+x25 <=1 
C502: x16+x26 <=1 
C503: x16+x27-y16_27 <=1 
C504: x16+x28 <=1 
C505: x16+x30 <=1 
C506: x16+x31 <=1 
C507: x16+x32 <=1 
C508: x16+x33-y16_33 <=1 
C509: x16+x35 <=1 
C510: x16+x36-y16_36 <=1 
C511: x16+x39-y16_39 <=1 
C512: x16+x40 <=1 
C513: x16+x41 <=1 
C514: x16+x42-y16_42 <=1 
C515: x16+x44 <=1 
C516: x16+x45-y16_45 <=1 
C517: x16+x46 <=1 
C518: x16+x51-y16_51 <=1 
C519: x16+x54-y16_54 <=1 
C520: x16+x55 <=1 
C521: x16+x56-y16_56 <=1 
C522: x16+x57-y16_57 <=1 
C523: x16+x58-y16_58 <=1 
C524: x17+x21 <=1 
C525: x17+x24 <=1 
C526: x17+x27 <=1 
C527: x17+x28-y17_28 <=1 
C528: x17+x29 <=1 
C529: x17+x33 <=1 
C530: x17+x34-y17_34 <=1 
C531: x17+x38 <=1 
C532: x17+x39-y17_39 <=1 
C533: x17+x40 <=1 
C534: x17+x41 <=1 
C535: x17+x45 <=1 
C536: x17+x50 <=1 
C537: x17+x52 <=1 
C538: x17+x53 <=1 
C539: x17+x54 <=1 
C540: x17+x55 <=1 
C541: x17+x56-y17_56 <=1 
C542: x17+x58-y17_58 <=1 
C543: x18+x19 <=1 
C544: x18+x20-y18_20 <=1 
C545: x18+x21 <=1 
C546: x18+x22 <=1 
C547: x18+x23 <=1 
C548: x18+x25 <=1 
C549: x18+x26 <=1 
C550: x18+x27 <=1 
C551: x18+x29 <=1 
C552: x18+x34 <=1 
C553: x18+x35-y18_35 <=1 
C554: x18+x36-y18_36 <=1 
C555: x18+x37 <=1 
C556: x18+x38-y18_38 <=1 
C557: x18+x39 <=1 
C558: x18+x46-y18_46 <=1 
C559: x18+x48 <=1 
C560: x18+x50-y18_50 <=1 
C561: x18+x51-y18_51 <=1 
C562: x18+x53 <=1 
C563: x18+x57 <=1 
C564: x19+x20-y19_20 <=1 
C565: x19+x21-y19_21 <=1 
C566: x19+x22-y19_22 <=1 
C567: x19+x24 <=1 
C568: x19+x25 <=1 
C569: x19+x26 <=1 
C570: x19+x28 <=1 
C571: x19+x29 <=1 
C572: x19+x30 <=1 
C573: x19+x31-y19_31 <=1 
C574: x19+x33-y19_33 <=1 
C575: x19+x34-y19_34 <=1 
C576: x19+x35 <=1 
C577: x19+x36 <=1 
C578: x19+x37-y19_37 <=1 
C579: x19+x38 <=1 
C580: x19+x40 <=1 
C581: x19+x43-y19_43 <=1 
C582: x19+x44 <=1 
C583: x19+x46-y19_46 <=1 
C584: x19+x47 <=1 
C585: x19+x49 <=1 
C586: x19+x54-y19_54 <=1 
C587: x19+x55 <=1 
C588: x19+x56 <=1 
C589: x19+x57-y19_57 <=1 
C590: x20+x21 <=1 
C591: x20+x22 <=1 
C592: x20+x23-y20_23 <=1 
C593: x20+x24-y20_24 <=1 
C594: x20+x26-y20_26 <=1 
C595: x20+x27-y20_27 <=1 
C596: x20+x28-y20_28 <=1 
C597: x20+x31-y20_31 <=1 
C598: x20+x35-y20_35 <=1 
C599: x20+x38 <=1 
C600: x20+x39-y20_39 <=1 
C601: x20+x40 <=1 
C602: x20+x41 <=1 
C603: x20+x43 <=1 
C604: x20+x44-y20_44 <=1 
C605: x20+x46 <=1 
C606: x20+x47-y20_47 <=1 
C607: x20+x48-y20_48 <=1 
C608: x20+x50 <=1 
C609: x20+x51-y20_51 <=1 
C610: x20+x53 <=1 
C611: x20+x54-y20_54 <=1 
C612: x20+x55-y20_55 <=1 
C613: x20+x58-y20_58 <=1 
C614: x21+x23-y21_23 <=1 
C615: x21+x25 <=1 
C616: x21+x26-y21_26 <=1 
C617: x21+x29-y21_29 <=1 
C618: x21+x31 <=1 
C619: x21+x34 <=1 
C620: x21+x35-y21_35 <=1 
C621: x21+x36-y21_36 <=1 
C622: x21+x38-y21_38 <=1 
C623: x21+x39-y21_39 <=1 
C624: x21+x42-y21_42 <=1 
C625: x21+x43 <=1 
C626: x21+x46-y21_46 <=1 
C627: x21+x47-y21_47 <=1 
C628: x21+x48 <=1 
C629: x21+x50 <=1 
C630: x21+x52 <=1 
C631: x21+x55 <=1 
C632: x22+x23-y22_23 <=1 
C633: x22+x24-y22_24 <=1 
C634: x22+x26-y22_26 <=1 
C635: x22+x28 <=1 
C636: x22+x36-y22_36 <=1 
C637: x22+x39 <=1 
C638: x22+x40 <=1 
C639: x22+x41-y22_41 <=1 
C640: x22+x42 <=1 
C641: x22+x45 <=1 
C642: x22+x46-y22_46 <=1 
C643: x22+x47 <=1 
C644: x22+x48-y22_48 <=1 
C645: x22+x49-y22_49 <=1 
C646: x22+x55-y22_55 <=1 
C647: x22+x56 <=1 
C648: x22+x57 <=1 
C649: x22+x58 <=1 
C650: x22+x59-y22_59 <=1 
C651: x23+x24-y23_24 <=1 
C652: x23+x29 <=1 
C653: x23+x31-y23_31 <=1 
C654: x23+x34 <=1 
C655: x23+x35 <=1 
C656: x23+x37-y23_37 <=1 
C657: x23+x41-y23_41 <=1 
C658: x23+x42-y23_42 <=1 
C659: x23+x46-y23_46 <=1 
C660: x23+x49-y23_49 <=1 
C661: x23+x50-y23_50 <=1 
C662: x23+x51-y23_51 <=1 
C663: x23+x52 <=1 
C664: x23+x53-y23_53 <=1 
C665: x23+x54-y23_54 <=1 
C666: x23+x55 <=1 
C667: x23+x58 <=1 
C668: x24+x25-y24_25 <=1 
C669: x24+x26-y24_26 <=1 
C670: x24+x27-y24_27 <=1 
C671: x24+x29 <=1 
C672: x24+x30 <=1 
C673: x24+x31 <=1 
C674: x24+x32 <=1 
C675: x24+x33-y24_33 <=1 
C676: x24+x36-y24_36 <=1 
C677: x24+x38-y24_38 <=1 
C678: x24+x40 <=1 
C679: x24+x41 <=1 
C680: x24+x42 <=1 
C681: x24+x43 <=1 
C682: x24+x46-y24_46 <=1 
C683: x24+x48 <=1 
C684: x24+x51 <=1 
C685: x24+x52 <=1 
C686: x24+x53 <=1 
C687: x24+x54 <=1 
C688: x24+x55-y24_55 <=1 
C689: x24+x56-y24_56 <=1 
C690: x24+x59-y24_59 <=1 
C691: x25+x26 <=1 
C692: x25+x28 <=1 
C693: x25+x29 <=1 
C694: x25+x30-y25_30 <=1 
C695: x25+x33-y25_33 <=1 
C696: x25+x35 <=1 
C697: x25+x36 <=1 
C698: x25+x37 <=1 
C699: x25+x38-y25_38 <=1 
C700: x25+x39 <=1 
C701: x25+x40-y25_40 <=1 
C702: x25+x41 <=1 
C703: x25+x42 <=1 
C704: x25+x43-y25_43 <=1 
C705: x25+x44-y25_44 <=1 
C706: x25+x45-y25_45 <=1 
C707: x25+x46 <=1 
C708: x25+x47 <=1 
C709: x25+x49-y25_49 <=1 
C710: x25+x50 <=1 
C711: x25+x51 <=1 
C712: x25+x52 <=1 
C713: x25+x53 <=1 
C714: x25+x54 <=1 
C715: x25+x55-y25_55 <=1 
C716: x25+x57-y25_57 <=1 
C717: x26+x27-y26_27 <=1 
C718: x26+x28-y26_28 <=1 
C719: x26+x31-y26_31 <=1 
C720: x26+x33 <=1 
C721: x26+x34-y26_34 <=1 
C722: x26+x35-y26_35 <=1 
C723: x26+x36-y26_36 <=1 
C724: x26+x37 <=1 
C725: x26+x38 <=1 
C726: x26+x39 <=1 
C727: x26+x44-y26_44 <=1 
C728: x26+x46-y26_46 <=1 
C729: x26+x47 <=1 
C730: x26+x48-y26_48 <=1 
C731: x26+x50-y26_50 <=1 
C732: x26+x52-y26_52 <=1 
C733: x26+x55 <=1 
C734: x26+x59-y26_59 <=1 
C735: x27+x28-y27_28 <=1 
C736: x27+x32-y27_32 <=1 
C737: x27+x33-y27_33 <=1 
C738: x27+x34 <=1 
C739: x27+x37 <=1 
C740: x27+x39-y27_39 <=1 
C741: x27+x40-y27_40 <=1 
C742: x27+x41-y27_41 <=1 
C743: x27+x42-y27_42 <=1 
C744: x27+x48 <=1 
C745: x27+x49-y27_49 <=1 
C746: x27+x50-y27_50 <=1 
C747: x27+x51 <=1 
C748: x27+x54 <=1 
C749: x27+x57 <=1 
C750: x27+x58 <=1 
C751: x27+x59-y27_59 <=1 
C752: x28+x30-y28_30 <=1 
C753: x28+x33-y28_33 <=1 
C754: x28+x34-y28_34 <=1 
C755: x28+x36 <=1 
C756: x28+x37-y28_37 <=1 
C757: x28+x38-y28_38 <=1 
C758: x28+x40 <=1 
C759: x28+x41-y28_41 <=1 
C760: x28+x42 <=1 
C761: x28+x43 <=1 
C762: x28+x44 <=1 
C763: x28+x45 <=1 
C764: x28+x46 <=1 
C765: x28+x47-y28_47 <=1 
C766: x28+x51 <=1 
C767: x28+x53 <=1 
C768: x28+x56-y28_56 <=1 
C769: x28+x58 <=1 
C770: x28+x59-y28_59 <=1 
C771: x29+x30 <=1 
C772: x29+x32 <=1 
C773: x29+x33-y29_33 <=1 
C774: x29+x34-y29_34 <=1 
C775: x29+x36 <=1 
C776: x29+x38 <=1 
C777: x29+x39-y29_39 <=1 
C778: x29+x40 <=1 
C779: x29+x41 <=1 
C780: x29+x43-y29_43 <=1 
C781: x29+x46 <=1 
C782: x29+x47 <=1 
C783: x29+x48 <=1 
C784: x29+x50 <=1 
C785: x29+x52 <=1 
C786: x29+x53-y29_53 <=1 
C787: x29+x54-y29_54 <=1 
C788: x29+x56 <=1 
C789: x29+x57-y29_57 <=1 
C790: x29+x58 <=1 
C791: x30+x31 <=1 
C792: x30+x32-y30_32 <=1 
C793: x30+x33-y30_33 <=1 
C794: x30+x35-y30_35 <=1 
C795: x30+x38-y30_38 <=1 
C796: x30+x39 <=1 
C797: x30+x40-y30_40 <=1 
C798: x30+x43-y30_43 <=1 
C799: x30+x44 <=1 
C800: x30+x45 <=1 
C801: x30+x46-y30_46 <=1 
C802: x30+x47-y30_47 <=1 
C803: x30+x48-y30_48 <=1 
C804: x30+x49-y30_49 <=1 
C805: x30+x50-y30_50 <=1 
C806: x30+x53 <=1 
C807: x30+x54-y30_54 <=1 
C808: x30+x58 <=1 
C809: x30+x59-y30_59 <=1 
C810: x31+x33-y31_33 <=1 
C811: x31+x34-y31_34 <=1 
C812: x31+x37-y31_37 <=1 
C813: x31+x39 <=1 
C814: x31+x42-y31_42 <=1 
C815: x31+x43 <=1 
C816: x31+x44 <=1 
C817: x31+x46 <=1 
C818: x31+x47-y31_47 <=1 
C819: x31+x49 <=1 
C820: x31+x50-y31_50 <=1 
C821: x31+x51 <=1 
C822: x31+x52-y31_52 <=1 
C823: x31+x53-y31_53 <=1 
C824: x31+x55-y31_55 <=1 
C825: x31+x57 <=1 
C826: x31+x58-y31_58 <=1 
C827: x31+x59 <=1 
C828: x32+x34-y32_34 <=1 
C829: x32+x35 <=1 
C830: x32+x36 <=1 
C831: x32+x38-y32_38 <=1 
C832: x32+x39-y32_39 <=1 
C833: x32+x40-y32_40 <=1 
C834: x32+x41-y32_41 <=1 
C835: x32+x43-y32_43 <=1 
C836: x32+x45 <=1 
C837: x32+x46-y32_46 <=1 
C838: x32+x53-y32_53 <=1 
C839: x32+x54 <=1 
C840: x32+x55 <=1 
C841: x32+x56 <=1 
C842: x32+x57-y32_57 <=1 
C843: x33+x40-y33_40 <=1 
C844: x33+x42 <=1 
C845: x33+x45 <=1 
C846: x33+x46-y33_46 <=1 
C847: x33+x48-y33_48 <=1 
C848: x33+x49-y33_49 <=1 
C849: x33+x50-y33_50 <=1 
C850: x33+x53 <=1 
C851: x33+x54 <=1 
C852: x33+x56-y33_56 <=1 
C853: x33+x57 <=1 
C854: x33+x58 <=1 
C855: x34+x35 <=1 
C856: x34+x36 <=1 
C857: x34+x39 <=1 
C858: x34+x40-y34_40 <=1 
C859: x34+x41 <=1 
C860: x34+x42 <=1 
C861: x34+x43-y34_43 <=1 
C862: x34+x49-y34_49 <=1 
C863: x34+x51-y34_51 <=1 
C864: x34+x52-y34_52 <=1 
C865: x34+x54-y34_54 <=1 
C866: x34+x55 <=1 
C867: x35+x38 <=1 
C868: x35+x41 <=1 
C869: x35+x44 <=1 
C870: x35+x45-y35_45 <=1 
C871: x35+x47 <=1 
C872: x35+x48 <=1 
C873: x35+x49 <=1 
C874: x35+x50 <=1 
C875: x35+x52 <=1 
C876: x35+x53-y35_53 <=1 
C877: x35+x55 <=1 
C878: x35+x56-y35_56 <=1 
C879: x35+x57 <=1 
C880: x35+x58 <=1 
C881: x36+x39 <=1 
C882: x36+x43 <=1 
C883: x36+x44-y36_44 <=1 
C884: x36+x45 <=1 
C885: x36+x46 <=1 
C886: x36+x50 <=1 
C887: x36+x51-y36_51 <=1 
C888: x36+x54-y36_54 <=1 
C889: x36+x55 <=1 
C890: x36+x57-y36_57 <=1 
C891: x37+x38 <=1 
C892: x37+x40 <=1 
C893: x37+x41 <=1 
C894: x37+x43-y37_43 <=1 
C895: x37+x45 <=1 
C896: x37+x47 <=1 
C897: x37+x49 <=1 
C898: x37+x50 <=1 
C899: x37+x51-y37_51 <=1 
C900: x37+x55 <=1 
C901: x37+x56-y37_56 <=1 
C902: x37+x57-y37_57 <=1 
C903: x37+x58-y37_58 <=1 
C904: x37+x59 <=1 
C905: x38+x39 <=1 
C906: x38+x40 <=1 
C907: x38+x41-y38_41 <=1 
C908: x38+x43 <=1 
C909: x38+x44-y38_44 <=1 
C910: x38+x45-y38_45 <=1 
C911: x38+x46-y38_46 <=1 
C912: x38+x48-y38_48 <=1 
C913: x38+x51-y38_51 <=1 
C914: x38+x55 <=1 
C915: x38+x59-y38_59 <=1 
C916: x39+x40-y39_40 <=1 
C917: x39+x41-y39_41 <=1 
C918: x39+x43 <=1 
C919: x39+x45-y39_45 <=1 
C920: x39+x46 <=1 
C921: x39+x47 <=1 
C922: x39+x48 <=1 
C923: x39+x49 <=1 
C924: x39+x53-y39_53 <=1 
C925: x39+x55-y39_55 <=1 
C926: x39+x56-y39_56 <=1 
C927: x39+x57-y39_57 <=1 
C928: x39+x58 <=1 
C929: x40+x41-y40_41 <=1 
C930: x40+x42 <=1 
C931: x40+x44 <=1 
C932: x40+x45 <=1 
C933: x40+x49 <=1 
C934: x40+x52 <=1 
C935: x40+x53 <=1 
C936: x40+x55-y40_55 <=1 
C937: x40+x56 <=1 
C938: x40+x57-y40_57 <=1 
C939: x40+x59 <=1 
C940: x41+x42-y41_42 <=1 
C941: x41+x44-y41_44 <=1 
C942: x41+x46 <=1 
C943: x41+x47-y41_47 <=1 
C944: x41+x48 <=1 
C945: x41+x51 <=1 
C946: x41+x52 <=1 
C947: x41+x56-y41_56 <=1 
C948: x41+x58 <=1 
C949: x41+x59 <=1 
C950: x42+x45 <=1 
C951: x42+x46-y42_46 <=1 
C952: x42+x49-y42_49 <=1 
C953: x42+x51 <=1 
C954: x42+x52-y42_52 <=1 
C955: x42+x53-y42_53 <=1 
C956: x42+x54 <=1 
C957: x42+x55 <=1 
C958: x42+x57 <=1 
C959: x42+x58 <=1 
C960: x43+x45-y43_45 <=1 
C961: x43+x47-y43_47 <=1 
C962: x43+x48 <=1 
C963: x43+x49-y43_49 <=1 
C964: x43+x52-y43_52 <=1 
C965: x43+x54-y43_54 <=1 
C966: x43+x55-y43_55 <=1 
C967: x43+x57-y43_57 <=1 
C968: x43+x58-y43_58 <=1 
C969: x44+x46 <=1 
C970: x44+x48-y44_48 <=1 
C971: x44+x49 <=1 
C972: x44+x55 <=1 
C973: x44+x59 <=1 
C974: x45+x47-y45_47 <=1 
C975: x45+x51 <=1 
C976: x45+x52-y45_52 <=1 
C977: x45+x53-y45_53 <=1 
C978: x45+x54 <=1 
C979: x45+x55-y45_55 <=1 
C980: x45+x56 <=1 
C981: x45+x59 <=1 
C982: x46+x48 <=1 
C983: x46+x49 <=1 
C984: x46+x51-y46_51 <=1 
C985: x46+x52-y46_52 <=1 
C986: x46+x54-y46_54 <=1 
C987: x46+x56-y46_56 <=1 
C988: x46+x57 <=1 
C989: x46+x58 <=1 
C990: x46+x59-y46_59 <=1 
C991: x47+x50-y47_50 <=1 
C992: x47+x51 <=1 
C993: x47+x53-y47_53 <=1 
C994: x47+x55 <=1 
C995: x47+x57-y47_57 <=1 
C996: x47+x58-y47_58 <=1 
C997: x47+x59-y47_59 <=1 
C998: x48+x50 <=1 
C999: x48+x51 <=1 
C1000: x48+x54-y48_54 <=1 
C1001: x48+x55 <=1 
C1002: x48+x56 <=1 
C1003: x48+x57 <=1 
C1004: x48+x58-y48_58 <=1 
C1005: x48+x59 <=1 
C1006: x49+x52 <=1 
C1007: x49+x54-y49_54 <=1 
C1008: x49+x57-y49_57 <=1 
C1009: x49+x58-y49_58 <=1 
C1010: x50+x51 <=1 
C1011: x50+x52 <=1 
C1012: x50+x53-y50_53 <=1 
C1013: x50+x54-y50_54 <=1 
C1014: x50+x55 <=1 
C1015: x50+x59-y50_59 <=1 
C1016: x51+x52-y51_52 <=1 
C1017: x51+x53-y51_53 <=1 
C1018: x51+x54 <=1 
C1019: x51+x57-y51_57 <=1 
C1020: x51+x58-y51_58 <=1 
C1021: x51+x59 <=1 
C1022: x52+x53-y52_53 <=1 
C1023: x52+x54-y52_54 <=1 
C1024: x52+x55-y52_55 <=1 
C1025: x52+x56 <=1 
C1026: x53+x54 <=1 
C1027: x53+x55-y53_55 <=1 
C1028: x53+x56 <=1 
C1029: x53+x57 <=1 
C1030: x53+x59-y53_59 <=1 
C1031: x54+x56 <=1 
C1032: x54+x57-y54_57 <=1 
C1033: x54+x58-y54_58 <=1 
C1034: x55+x57 <=1 
C1035: x55+x58 <=1 
C1036: x56+x57-y56_57 <=1 
C1037: x56+x59 <=1 
C1038: x57+x59-y57_59 <=1 

binary
x0
x1
x2
x3
x4
x5
x6
x7
x8
x9
x10
x11
x12
x13
x14
x15
x16
x17
x18
x19
x20
x21
x22
x23
x24
x25
x26
x27
x28
x29
x30
x31
x32
x33
x34
x35
x36
x37
x38
x39
x40
x41
x42
x43
x44
x45
x46
x47
x48
x49
x50
x51
x52
x53
x54
x55
x56
x57
x58
x59
