problem_generation/data/GISP/train/er_n=60_m=1038_p=0.60_SET2_setparam=100.00_alpha=0.50_283.sol
objective value:                                 1178
x4                                                  1 	(obj:100)
x11                                                 1 	(obj:100)
x23                                                 1 	(obj:100)
x27                                                 1 	(obj:100)
x30                                                 1 	(obj:100)
x33                                                 1 	(obj:100)
x36                                                 1 	(obj:100)
x38                                                 1 	(obj:100)
x41                                                 1 	(obj:100)
x47                                                 1 	(obj:100)
x49                                                 1 	(obj:100)
x56                                                 1 	(obj:100)
y33_56                                              1 	(obj:-1)
y27_41                                              1 	(obj:-1)
y38_41                                              1 	(obj:-1)
y27_49                                              1 	(obj:-1)
y11_41                                              1 	(obj:-1)
y4_38                                               1 	(obj:-1)
y11_27                                              1 	(obj:-1)
y30_49                                              1 	(obj:-1)
y11_30                                              1 	(obj:-1)
y33_49                                              1 	(obj:-1)
y4_56                                               1 	(obj:-1)
y23_41                                              1 	(obj:-1)
y4_23                                               1 	(obj:-1)
y4_41                                               1 	(obj:-1)
y23_49                                              1 	(obj:-1)
y27_33                                              1 	(obj:-1)
y30_38                                              1 	(obj:-1)
y30_47                                              1 	(obj:-1)
y30_33                                              1 	(obj:-1)
y11_38                                              1 	(obj:-1)
y41_47                                              1 	(obj:-1)
y41_56                                              1 	(obj:-1)
